N = 6;
H = 6;
T = 2;

avail = array3d(1..N, 1..H, 1..T, [10, 4, 8, 6, 9, 8, 4, 1, 1, 3, 3, 4, 5, 1, 2, 8, 10, 2, 5, 10, 9, 10, 4, 10, 5, 1, 6, 6, 2, 5, 1, 5, 5, 7, 10, 4, 2, 3, 5, 7, 7, 3, 9, 1, 8, 10, 10, 9, 9, 1, 6, 3, 5, 9, 3, 4, 0, 3, 4, 3, 9, 4, 3, 1, 8, 10, 9, 1, 7, 2, 6, 10]);

r = array2d(1..H, 1..T, [1, 1, 2, 2, 3, 2, 1, 0, 0, 2, 2, 0]);
